! xtb2 opt
%pal 
    nprocs 9
end

%geom
    ConstrainFragments 
        { 1 }
        { 2 }
        { 3 }
        { 4 }
    end # constrain all internal coordinates of fragment 1,2,3,4
    ConnectFragments
        {1 5 O}
        {2 5 O}
        {3 5 O}
        {4 5 O}
        {1 3 O}
        {3 2 O}
        {2 4 O}
        {4 1 O}
    end
    optimizeHydrogens true # do not constrain any hydrogen position
end
* xyz 0 1
C(1)  1.000000000000  2.000000000000  3.000000000000
H(1)  4.000000000000  5.000000000000  6.000000000000
H(1)  7.000000000000  8.000000000000  9.000000000000
H(1)  0.548813503927  0.715189366372  0.602763376072
C(1)  0.544883182997  0.423654799339  0.645894113067
O(1)  0.437587211263  0.891773000782  0.963662760501
N(1)  0.383441518826  0.791725038083  0.528894919753
H(1)  0.568044561094  0.925596638293  0.071036058198
C(1)  0.087129299702  0.020218397440  0.832619845548
H(1)  0.778156750950  0.870012148247  0.978618342233
C(1)  0.799158564217  0.461479362253  0.780529176286
H(1)  0.118274425869  0.639921021328  0.143353287409
O(1)  0.944668917050  0.521848321750  0.414661939991
H(1)  0.264555612105  0.774233689434  0.456150332217
C(1)  0.568433948869  0.018789800436  0.617635497076
H(1)  0.612095722722  0.616933996875  0.943748078515
H(1)  0.681820299103  0.359507900574  0.437031953799
H(1)  0.697631195927  0.060225471629  0.666766715446
C(1)  0.670637869618  0.210382561074  0.128926297655
O(1)  0.315428350924  0.363710770943  0.570196770418
N(1)  0.438601513462  0.988373838059  0.102044810748
H(1)  0.208876756095  0.161309517885  0.653108325465
C(1)  0.253291602540  0.466310772856  0.244425592002
H(1)  0.158969583646  0.110375141164  0.656329589465
H(1)  0.138182951349  0.196582361680  0.368725170661
C(1)  0.820993229848  0.097101275793  0.837944907499
O(1)  0.096098407894  0.976459465013  0.468651201648
N(1)  0.976761088190  0.604845519745  0.739263579398
H(1)  0.039187792254  0.282806962576  0.120196561213
C(1)  0.296140197522  0.118727718954  0.317983179394
H(1)  0.414262994515  0.064147496349  0.692472119370
C(1)  0.566601454207  0.265389490939  0.523248053467
H(1)  0.093940510758  0.575946495556  0.929296197576
O(1)  0.318568952451  0.667410379964  0.131797862404
H(1)  0.716327204119  0.289406092947  0.183191362007
C(1)  0.586512934810  0.020107546187  0.828940029217
H(1)  0.004695476193  0.677816536796  0.270007973192
H(1)  0.735194022123  0.962188545117  0.248753143520
H(1)  0.576157334418  0.592041931272  0.572251905791
C(1)  0.223081632641  0.952749011517  0.447125378618
O(1)  0.846408672471  0.699479275318  0.297436950855
N(1)  0.813797819702  0.396505740847  0.881103197111
H(1)  0.581272872636  0.881735361855  0.692531590078
C(1)  0.725254279820  0.501324381927  0.956083634723
H(1)  0.643990199230  0.423855048558  0.606393214128
C(1)  0.019193198309  0.301574816675  0.660173537493
H(1)  0.290077607210  0.618015428999  0.428768700946
O(1)  0.135474064222  0.298282325956  0.569964910701
H(1)  0.590872761248  0.574325248850  0.653200819857
C(1)  0.652103270002  0.431418435434  0.896546595851
H(1)  0.367561870048  0.435864925266  0.891923355016
H(1)  0.806193989046  0.703888583540  0.100226887312
H(1)  0.919482613745  0.714241299549  0.998847006568
C(1)  0.149448304658  0.868126057368  0.162492934676
O(1)  0.615559564284  0.123819982849  0.848008229322
N(1)  0.807318958725  0.569100738615  0.407183297226
H(1)  0.069166995455  0.697428773145  0.453542682678
C(1)  0.722055599470  0.866382325929  0.975521505003
H(1)  0.855803342393  0.011714084185  0.359978064478
C(1)  0.729990562424  0.171629677261  0.521036606204
H(1)  0.054337988339  0.199996524896  0.018521794461
C(1)  0.793697703357  0.223924688060  0.345351680697
H(1)  0.928081293466  0.704414401924  0.031838929531
H(1)  0.164694156498  0.621478401500  0.577228588604
H(1)  0.237892821375  0.934213997925  0.613965955966
C(1)  0.535632803025  0.589909976355  0.730122029517
H(1)  0.311944995480  0.398221062216  0.209843748975
H(1)  0.186193005880  0.944372389984  0.739550795049
H(1)  0.490458808618  0.227414627973  0.254356481770
C(1)  0.058029160324  0.434416625558  0.311795881994
O(1)  0.696343488815  0.377751839292  0.179603677560
N(1)  0.024678728391  0.067249631463  0.679392773499
H(1)  0.453696844556  0.536579211109  0.896671293040
C(1)  0.990338947397  0.216896984398  0.663078203100
H(1)  0.263322376737  0.020650999466  0.758378653836
H(1)  0.320017150822  0.383463894172  0.588317113554
C(1)  0.831048455236  0.628981843591  0.872650655447
O(1)  0.273542034816  0.798046833913  0.185635944306
N(1)  0.952791656972  0.687488276388  0.215507677114
H(1)  0.947370590489  0.730855806770  0.253941642595
C(1)  0.213311977367  0.518200713931  0.025662718055
H(1)  0.207470075441  0.424685468752  0.374169980334
C(1)  0.463575424365  0.277628706295  0.586784346458
H(1)  0.863855605923  0.117531855962  0.517379107154
H(1)  0.132068106345  0.716859681193  0.396059702807
C(1)  0.565421311859  0.183279836214  0.144847759343
C(1)  0.488056280649  0.355612737850  0.940431945253
H(1)  0.765325253807  0.748663619851  0.903719739746
C(1)  0.083422435442  0.552192469922  0.584476068956
H(1)  0.961936378547  0.292147526793  0.240828779915
C(1)  0.100293942265  0.016429629591  0.929529316792
O(1)  0.669916546591  0.785152912023  0.281730105754
H(1)  0.586410166186  0.063955266121  0.485627595935
C(1)  0.977495139744  0.876505245317  0.338158951837
H(1)  0.961570154541  0.231701626471  0.949318822416
C(1)  0.941377704706  0.799202587352  0.630447936867
H(1)  0.874287966625  0.293020284508  0.848943555313
C(1)  0.617876691918  0.013236857759  0.347233517932
O(1)  0.148140860948  0.981829389818  0.478370307040
N(1)  0.497391365499  0.639472516399  0.368584606130
H(1)  0.136900271686  0.822117733194  0.189847911903
C(1)  0.511318982546  0.224317028975  0.097844484494
H(1)  0.862191517422  0.972919489023  0.960834658063
H(1)  0.906555499221  0.774047332699  0.333145152029
C(1)  0.081101389988  0.407241171414  0.232234142171
O(1)  0.132487634758  0.053427181787  0.725594364211
N(1)  0.011427458625  0.770580748503  0.146946645400
H(1)  0.079522082587  0.089603034239  0.672047807354
C(1)  0.245367209853  0.420539466680  0.557368791324
H(1)  0.860551173829  0.727044262711  0.270327905239
C(1)  0.131482799291  0.055374320421  0.301598634481
H(1)  0.262118149240  0.456140566800  0.683281335548
H(1)  0.695625445639  0.283518846582  0.379926955900
C(1)  0.181150961737  0.788545512307  0.056848076433
O(1)  0.696997241725  0.778695395941  0.777407561849
O(1)  0.259422564345  0.373813137933  0.587599635196
C(1)  0.272821902424  0.370852799218  0.197054280186
N(1)  0.459855883756  0.044612301254  0.799795884571
H(1)  0.076956446987  0.518835148832  0.306810099545
H(1)  0.577542948831  0.959433340833  0.645570244456
O(1)  0.035362435755  0.430402439508  0.510016852318
C(2)  0.536177494703  0.681392510604  0.277596097732
H(2)  0.128860565466  0.392675676547  0.956405722796
H(2)  0.187130891751  0.903983954928  0.543805950077
H(2)  0.456911421646  0.882041410230  0.458603961769
C(2)  0.724167636612  0.399025321703  0.904044392901
O(2)  0.690025020191  0.699622054251  0.327720401557
N(2)  0.756778642737  0.636061055447  0.240020273380
H(2)  0.160538822485  0.796391474517  0.959166603035
C(2)  0.458138827260  0.590984165324  0.857722644194
H(2)  0.457223453354  0.951874476833  0.575751162045
C(2)  0.820767120701  0.908843718413  0.815523818769
H(2)  0.159414463449  0.628898439062  0.398434258620
O(2)  0.062712952023  0.424032251890  0.258684066889
H(2)  0.849038308429  0.033304626547  0.958982721863
C(2)  0.355368848472  0.356706890403  0.016328502684
H(2)  0.185232325236  0.401259500804  0.929291417303
H(2)  0.099614930221  0.945301533479  0.869488530547
H(2)  0.454162396908  0.326700881768  0.232744129279
C(2)  0.614464706477  0.033074591476  0.015606064447
O(2)  0.428795722498  0.068074073975  0.251940988246
N(2)  0.221160915346  0.253191193723  0.131055231215
H(2)  0.012036222898  0.115484297139  0.618480259513
C(2)  0.974256212818  0.990345001561  0.409054095373
H(2)  0.162954426047  0.638761757367  0.490305346549
H(2)  0.989409777284  0.065304207152  0.783234438314
C(2)  0.288398497331  0.241418620077  0.662504571533
O(2)  0.246063184991  0.665859117559  0.517308517202
N(2)  0.424088988436  0.554687808661  0.287051519920
H(2)  0.706574706273  0.414856869334  0.360545560486
C(2)  0.828656914556  0.924966911953  0.046007310887
H(2)  0.232626992830  0.348519369493  0.814966479370
C(2)  0.985491427643  0.968971704670  0.904948345550
H(2)  0.296556265064  0.992011243414  0.249420041056
O(2)  0.105906154882  0.950952611055  0.233420255468
H(2)  0.689768265078  0.058356358981  0.730709099127
C(2)  0.881720212334  0.272436895466  0.379056896077
H(2)  0.374296183321  0.748788257540  0.237807242539
H(2)  0.171853099048  0.449291648688  0.304468407377
H(2)  0.839189122259  0.237741826016  0.502389457489
C(2)  0.942583599698  0.633997697745  0.867289405462
O(2)  0.940209689355  0.750764861886  0.699575060225
N(2)  0.967965566604  0.994400789648  0.451821682670
H(2)  0.070869778184  0.292794031441  0.152354705688
C(2)  0.417486374796  0.131289328473  0.604117804021
H(2)  0.382808059158  0.895385884288  0.967794671799
C(2)  0.546884901669  0.274823569868  0.592230418762
H(2)  0.896761158224  0.406733345836  0.552078276692
O(2)  0.271652767606  0.455444149450  0.401713535380
H(2)  0.248413465083  0.505866383825  0.310380825980
C(2)  0.373034863881  0.524970442254  0.750595022929
H(2)  0.333507465791  0.924158766621  0.862318546836
H(2)  0.048690295976  0.253642524257  0.446135512659
H(2)  0.104627888742  0.348475989033  0.740097525618
C(2)  0.680514481143  0.622384428566  0.710528402722
O(2)  0.204923686960  0.341698114865  0.676242482277
N(2)  0.879234763031  0.543678053828  0.282699650946
H(2)  0.030235258006  0.710336828974  0.007884103508
C(2)  0.372679069821  0.530537214563  0.922111461767
H(2)  0.089494545033  0.405942321968  0.024313199710
C(2)  0.342610984342  0.622231058840  0.279067948229
H(2)  0.209749949656  0.115703233327  0.577140244020
C(2)  0.695270005905  0.671957140596  0.948861020721
H(2)  0.002703213894  0.647196653894  0.600392237098
H(2)  0.588739609970  0.962770319840  0.016871673370
H(2)  0.696482430701  0.813678649702  0.509807196622
C(2)  0.333964869597  0.790840163227  0.097242925632
H(2)  0.442035637730  0.519952374571  0.693956410935
H(2)  0.090885732032  0.227759501538  0.410301562690
H(2)  0.623294673020  0.886960781217  0.618826168241
C(2)  0.133461470935  0.980580132787  0.871785734755
O(2)  0.502720761145  0.922347981797  0.541380793757
N(2)  0.923306067889  0.829897368603  0.968286410294
H(2)  0.919782810778  0.036033817429  0.174772004161
C(2)  0.389134677101  0.952142697295  0.300028919476
H(2)  0.160467643888  0.886304666087  0.446394415483
H(2)  0.907875594354  0.160230466320  0.661117511508
C(2)  0.440263752829  0.076486769030  0.696463144653
O(2)  0.247398755539  0.039615522580  0.059944298250
N(2)  0.061078537067  0.907732957485  0.739883917829
H(2)  0.898062357214  0.672582311297  0.528939929031
C(2)  0.304446364347  0.997962251329  0.362189058939
H(2)  0.470648949214  0.378245174923  0.979526929335
C(2)  0.174658385395  0.327988000908  0.680348666015
H(2)  0.063207618339  0.607249374012  0.477646502876
H(2)  0.283999976762  0.238413280924  0.514512743299
C(2)  0.367927580537  0.456519891263  0.337477381764
C(2)  0.970493693596  0.133439431746  0.096803953178
H(2)  0.343391728791  0.591026900870  0.659176471850
C(2)  0.397256747168  0.999277993922  0.351892996193
H(2)  0.721406667960  0.637582694531  0.813053863247
C(2)  0.976225663454  0.889793656446  0.764561974358
O(2)  0.698248477818  0.335498169676  0.147685578207
H(2)  0.062636003060  0.241901704201  0.432281481181
C(2)  0.521996273630  0.773083554055  0.958740923057
H(2)  0.117320480385  0.107004140194  0.589694723014
C(2)  0.745398073947  0.848150380347  0.935832080217
H(2)  0.983426242261  0.399801692225  0.380335183528
C(2)  0.147808676697  0.684934438684  0.656761958441
O(2)  0.862062595851  0.097257994788  0.497776907825
N(2)  0.581081929672  0.241557040040  0.169025406129
H(2)  0.859580836420  0.058534922236  0.470620903918
C(2)  0.115834001301  0.457058761331  0.979962326342
H(2)  0.423706353455  0.857124917505  0.117315564183
H(2)  0.271252076762  0.403792740667  0.399812140009
C(2)  0.671383478670  0.344718127376  0.713766868410
O(2)  0.639186899225  0.399161145255  0.431760127654
N(2)  0.614527699810  0.070042190145  0.822406738356
H(2)  0.653421161114  0.726342464418  0.536923001082
C(2)  0.110477110992  0.405035613297  0.405373582849
H(2)  0.321042990043  0.029950324905  0.737254242596
C(2)  0.109784458063  0.606308133045  0.703217496467
H(2)  0.634786322934  0.959142251978  0.103298155085
H(2)  0.867167159105  0.029190234849  0.534916854927
C(2)  0.404243617939  0.524183860394  0.365099877060
O(2)  0.190566914940  0.019122897449  0.518149813791
O(2)  0.842776862685  0.373215955745  0.222863818015
C(2)  0.080532003472  0.085310923119  0.221396446293
N(2)  0.100014060922  0.265039698364  0.066149462117
H(2)  0.065604867210  0.856276179623  0.162120260709
H(2)  0.559682405823  0.773455544449  0.456409565339
O(2)  0.153368877859  0.199596142120  0.432984206281
C(3)  0.528234089179  0.349440292049  0.781479600235
H(3)  0.751021648856  0.927211807373  0.028952549027
H(3)  0.895691291210  0.392568788462  0.878372495380
H(3)  0.690784776157  0.987348757074  0.759282451717
C(3)  0.364544625997  0.501063172835  0.376389155194
O(3)  0.364911836021  0.260904499381  0.495970295373
N(3)  0.681739945069  0.277340271305  0.524379811077
H(3)  0.117380294171  0.159845286854  0.046806354712
C(3)  0.970731442771  0.003860351510  0.178579968058
H(3)  0.612866753117  0.081369598853  0.881896503097
C(3)  0.719620157842  0.966389971438  0.507635547241
H(3)  0.300403683158  0.549500572795  0.930818717298
O(3)  0.520761437242  0.267207031862  0.877398789174
H(3)  0.371918748512  0.001383349999  0.247685022492
C(3)  0.318233509177  0.858777468232  0.458503167066
H(3)  0.444587287811  0.336102266400  0.880678123047
H(3)  0.945026776940  0.991890329155  0.376741266961
H(3)  0.966147445627  0.791879569631  0.675689147644
C(3)  0.244889479420  0.216457260944  0.166047824521
O(3)  0.922756610225  0.294076662383  0.453094245449
N(3)  0.493957833987  0.778171595450  0.844234961553
H(3)  0.139072701149  0.426904360211  0.842854887835
C(3)  0.818033305756  0.102413758452  0.156383348868
H(3)  0.304198691599  0.075359069083  0.424663002841
H(3)  0.107617705150  0.568217593670  0.246556939811
C(3)  0.596433065350  0.117525642904  0.975883868419
O(3)  0.932561203857  0.391796938565  0.242178594126
N(3)  0.250398212854  0.483393535202  0.039992801901
H(3)  0.639705106075  0.408302908340  0.377406572589
C(3)  0.809364971489  0.709035460183  0.954333815393
H(3)  0.351936240496  0.897542764649  0.769967186250
C(3)  0.357424651595  0.621665436453  0.288569957652
H(3)  0.874399917075  0.112427317212  0.212434361294
O(3)  0.183033292080  0.403026002404  0.745232960032
H(3)  0.526907449052  0.487676323538  0.000545964897
C(3)  0.425401725355  0.063553774836  0.208253252121
H(3)  0.932393938960  0.215398204343  0.858337638634
H(3)  0.802893371561  0.159146236942  0.605711957270
H(3)  0.115661871905  0.727888158370  0.637462277372
C(3)  0.811938561691  0.479384549389  0.914863087833
O(3)  0.049348946788  0.292888565027  0.715052597465
N(3)  0.418109211748  0.172951354271  0.107210745429
H(3)  0.817339111462  0.473142978466  0.882283671919
C(3)  0.733289134317  0.409726205631  0.373511014156
H(3)  0.515638346651  0.889059953190  0.737278579714
C(3)  0.005152964269  0.694157851369  0.919507406906
H(3)  0.710455759504  0.177005781567  0.483518127427
O(3)  0.140316017923  0.358995278340  0.937117041941
H(3)  0.923305307559  0.282836852176  0.339631044166
C(3)  0.600212868131  0.963197295260  0.147801334065
H(3)  0.256916643687  0.873556827291  0.491892231708
H(3)  0.898961092227  0.185517897523  0.532668587471
H(3)  0.326269632649  0.316542559892  0.446876963946
C(3)  0.433077449101  0.357346879678  0.914970770316
O(3)  0.731744185433  0.727546991332  0.289913449592
N(3)  0.577709424317  0.779179433302  0.795590368543
H(3)  0.344530460754  0.770872756569  0.735893896808
C(3)  0.141506485622  0.865945468566  0.441321470180
H(3)  0.486410448889  0.448369178898  0.567846001478
C(3)  0.621169247367  0.498179565763  0.866788543259
H(3)  0.627734756195  0.401427949306  0.416691756909
C(3)  0.810838615129  0.348191942747  0.211454795782
H(3)  0.059383188006  0.876026847921  0.918546451190
H(3)  0.120120182163  0.334473741496  0.175372069515
H(3)  0.115898468826  0.899866743000  0.056877259145
C(3)  0.980485663469  0.096450860697  0.863470649194
H(3)  0.566506106989  0.367917487818  0.342342376625
H(3)  0.757364143238  0.314573295004  0.657318916617
H(3)  0.517326083516  0.484965645158  0.901162170649
C(3)  0.554645058620  0.826861603049  0.725573534101
O(3)  0.038557246059  0.773110052505  0.216870250091
N(3)  0.903149646852  0.042924190609  0.333072034474
H(3)  0.099732947235  0.475589117085  0.820022435870
C(3)  0.298187359663  0.150934897311  0.330267035697
H(3)  0.813880141921  0.140383957799  0.227362449078
H(3)  0.068851964493  0.705710043990  0.395233243536
C(3)  0.310839977143  0.718626390341  0.335977542340
O(3)  0.727771273214  0.815199395314  0.217662843458
N(3)  0.973818696846  0.162357947913  0.290840906657
H(3)  0.179795290834  0.345505656356  0.480060887821
C(3)  0.522175869002  0.853606042296  0.889447908816
H(3)  0.220103860781  0.622894032186  0.111496057299
C(3)  0.458969860182  0.322333538047  0.316500745454
H(3)  0.482584241712  0.729827635529  0.069182658792
H(3)  0.879173337687  0.734813774631  0.176499388889
C(3)  0.939160909087  0.506312224023  0.999808578117
C(3)  0.197259474301  0.534908198383  0.290248042560
H(3)  0.304173557389  0.591065380834  0.921719066871
C(3)  0.805263855579  0.723941398501  0.559173782102
H(3)  0.922298503667  0.492361406691  0.873832178335
C(3)  0.833981643877  0.213835346802  0.771225462966
O(3)  0.012171156943  0.322829537548  0.229567444692
H(3)  0.506862958487  0.736853161681  0.097676367448
C(3)  0.514922201937  0.938412021694  0.228646550983
H(3)  0.677141144111  0.592880270781  0.010063695656
C(3)  0.475826195857  0.708770390941  0.043975432024
H(3)  0.879521483024  0.520081416636  0.030661048326
C(3)  0.224413611921  0.953675696427  0.582319733052
O(3)  0.107472567769  0.287544502281  0.456703625860
N(3)  0.020950069268  0.411615513614  0.489458635435
H(3)  0.243677875281  0.588639000292  0.753240119592
C(3)  0.235834224106  0.620499900280  0.639622242964
H(3)  0.948540301129  0.778276167296  0.848345269790
H(3)  0.490419908436  0.185348586979  0.995815292960
C(3)  0.129355761039  0.471457319354  0.068093099242
O(3)  0.943850857351  0.964924940848  0.719389062004
N(3)  0.349992843630  0.254382401118  0.265303324537
H(3)  0.127294025420  0.525808953077  0.141817275701
C(3)  0.316730666553  0.626706475959  0.727543609591
H(3)  0.024272704622  0.430115984377  0.652124594842
C(3)  0.853245976159  0.475324782212  0.969205871718
H(3)  0.265632547541  0.013508706627  0.483752864702
H(3)  0.256113795020  0.823717672023  0.232772672181
C(3)  0.310629218291  0.791227431019  0.715143252025
O(3)  0.558051236657  0.704948061923  0.418636863570
O(3)  0.005310047615  0.011355128512  0.511221787574
C(3)  0.083290979719  0.051075480169  0.965516639137
N(3)  0.859002639658  0.152027227210  0.000664218590
H(3)  0.941667795390  0.278325298320  0.185897602855
H(3)  0.691508107832  0.108903738841  0.264649598003
O(3)  0.975094680212  0.639462774474  0.520677791483
C(4)  0.397918614835  0.774500954884  0.140957476524
H(4)  0.967337802037  0.861123008066  0.617656982569
H(4)  0.042906190403  0.700855649448  0.913284340885
H(4)  0.524577067479  0.354224821827  0.120277344979
C(4)  0.754901104138  0.885021851212  0.100251744076
O(4)  0.758984554752  0.017060486259  0.967054918077
N(4)  0.615058020635  0.552439058992  0.295949833589
H(4)  0.929291671570  0.265905627337  0.828146613217
C(4)  0.985108679337  0.783396645515  0.518989920386
H(4)  0.066074263852  0.472413789171  0.438255946972
C(4)  0.202796041187  0.423587636714  0.357757884080
H(4)  0.163684261152  0.441374143332  0.262799956324
O(4)  0.522062420682  0.035160059716  0.906231419787
H(4)  0.816364305520  0.552581332511  0.851808582757
C(4)  0.962395073811  0.110522294053  0.630831808410
H(4)  0.997994000936  0.987889169334  0.603322992291
H(4)  0.128020870451  0.583192830991  0.002064635574
H(4)  0.198911334667  0.956123159560  0.330440572603
C(4)  0.638390105777  0.280859494632  0.947821887112
O(4)  0.728558729949  0.329651157581  0.791761421180
N(4)  0.108165524476  0.392318940065  0.221218127732
H(4)  0.683726447276  0.102446281772  0.397025832283
C(4)  0.276649730209  0.506342919324  0.349897680504
H(4)  0.706410577667  0.024577024307  0.633986921306
H(4)  0.230571289694  0.268709028757  0.800255603584
C(4)  0.955568393980  0.316550210027  0.826805270369
O(4)  0.103990837971  0.633981653007  0.751032299535
N(4)  0.155977928034  0.426002387670  0.892707164249
H(4)  0.103578463448  0.018096358201  0.590585379048
C(4)  0.435531540531  0.798689248884  0.923455538204
H(4)  0.299153644544  0.388404117169  0.486272086329
C(4)  0.588151460435  0.983853829682  0.697330250830
H(4)  0.389548507346  0.263767686450  0.944625718422
O(4)  0.135548433109  0.720265852505  0.925395025292
H(4)  0.664665586534  0.423054440166  0.198990939925
C(4)  0.367475322252  0.706871809420  0.649534224175
H(4)  0.927976166598  0.866860913659  0.816150752266
H(4)  0.911450875351  0.276337152737  0.369523540140
H(4)  0.379893903786  0.560450588710  0.668218229543
C(4)  0.286716683040  0.019462467309  0.399222383658
O(4)  0.308527959554  0.942184719018  0.888265040544
N(4)  0.860310678343  0.652999760945  0.344289164699
H(4)  0.548849267399  0.815225040716  0.098610368723
C(4)  0.801074880255  0.041179791328  0.816421031214
H(4)  0.807563804160  0.051007308829  0.627160711462
C(4)  0.502453074313  0.169819503172  0.148378937677
H(4)  0.773259126067  0.567692748837  0.982999134917
O(4)  0.982247777288  0.992666993464  0.118615518366
H(4)  0.938256136964  0.244569609021  0.458212259759
C(4)  0.757406555822  0.203620932077  0.566311605554
H(4)  0.185816748226  0.104736106681  0.116558612430
H(4)  0.357639034848  0.004654836837  0.424853921202
H(4)  0.664197105081  0.401688185004  0.085794600520
C(4)  0.062688862024  0.278116512765  0.169312690544
O(4)  0.965094973218  0.151230224974  0.805462437405
N(4)  0.586107941741  0.569286919984  0.512080715924
H(4)  0.971763076114  0.363844775092  0.787915750954
C(4)  0.555294107467  0.395633667626  0.955465933306
H(4)  0.598315969365  0.118916942146  0.417539200997
C(4)  0.781581727682  0.693747023239  0.916340329837
H(4)  0.259377384142  0.758193716354  0.459875207395
C(4)  0.573609746967  0.955046681006  0.979286319989
H(4)  0.861590963926  0.359097087730  0.887700835727
H(4)  0.638609177641  0.429996780471  0.035742682500
H(4)  0.770128124192  0.502105580724  0.786188499465
C(4)  0.748022799343  0.793567368048  0.300651158697
H(4)  0.800798599068  0.548846328466  0.473326200449
H(4)  0.675125913821  0.021358682938  0.102316815888
H(4)  0.292177365168  0.982990109958  0.139745778865
C(4)  0.330596300759  0.051053064692  0.331268880293
O(4)  0.320326286511  0.946807170945  0.845154086996
N(4)  0.382764219243  0.024769058039  0.831031113995
H(4)  0.660536177145  0.152364483651  0.996071271010
C(4)  0.100233437424  0.867114541594  0.294266164130
H(4)  0.435353466325  0.795456526776  0.677508355994
H(4)  0.937864374444  0.621140325460  0.097810161479
C(4)  0.884360363242  0.769155524989  0.711870450893
O(4)  0.053733547354  0.396222744662  0.167435819460
N(4)  0.821903908408  0.700528622818  0.883077597319
H(4)  0.966575106924  0.774747614192  0.994233083221
C(4)  0.614769886144  0.037129603891  0.014251515150
H(4)  0.342103875204  0.823471719068  0.866134706325
C(4)  0.960812528823  0.065121468549  0.044571110988
H(4)  0.913283596367  0.305046698363  0.557987400610
H(4)  0.982444883001  0.400448534736  0.665871398310
C(4)  0.400879563632  0.768194664463  0.527714725573
C(4)  0.237523137986  0.271306101258  0.258059212538
H(4)  0.532320328259  0.703189016016  0.949279900043
C(4)  0.694087375083  0.781192843962  0.168926115865
H(4)  0.374062625007  0.413780219858  0.686380230000
C(4)  0.295891976377  0.303291921420  0.355889154641
O(4)  0.810302081543  0.577590090043  0.075277279833
H(4)  0.078246099690  0.371286944282  0.766591050606
C(4)  0.688683426479  0.707982354651  0.767210066054
H(4)  0.287152712886  0.548256281942  0.543352640317
C(4)  0.739632501180  0.956870569106  0.277989944795
H(4)  0.793281672757  0.659970548523  0.580237870863
C(4)  0.774879779347  0.944032466428  0.036691417869
O(4)  0.147400102513  0.756287231501  0.083791352910
N(4)  0.516123700741  0.219860776642  0.274295703843
H(4)  0.701840482944  0.030192773269  0.873319427902
C(4)  0.444478955352  0.502393293907  0.540047963694
H(4)  0.645544294579  0.344856586623  0.101107490563
H(4)  0.318378936666  0.168142118023  0.556133179450
C(4)  0.318028630960  0.958067177993  0.965734277980
O(4)  0.620125880568  0.617497267667  0.985378564567
N(4)  0.887283151235  0.765069949158  0.313590611743
H(4)  0.365539028118  0.201266765761  0.487148126917
C(4)  0.990368522140  0.912150953012  0.118349434019
H(4)  0.025190289291  0.898637668408  0.537170127949
C(4)  0.200189888208  0.673653269585  0.644223177930
H(4)  0.122085606836  0.259600233498  0.060077964313
H(4)  0.209860473870  0.132305674853  0.193236292475
C(4)  0.685467145913  0.049499744261  0.101854615248
O(4)  0.134173638078  0.316541120958  0.298750310852
O(4)  0.255063785317  0.750536653432  0.998022787758
C(4)  0.533977923629  0.944202717914  0.396610112126
N(4)  0.106682446803  0.408773829470  0.296127773415
H(4)  0.493406962289  0.657043676916  0.461050219152
H(4)  0.935160512078  0.884764822299  0.701977595166
O(4)  0.489684912365  0.131687281814  0.397013666778
K(5)  0.704401539401  0.284885520554  0.103988077543
K(5)  0.907898457511  0.709050809816  0.615276426635
K(5)  0.792498905609  0.835646037583  0.483458998171
K(5)  0.881188251409  0.916419010701  0.271551095425
O(5)  0.607545359791  0.526584028820  0.537945779152
H(5)  0.937663093965  0.305188702693  0.983433978235
H(5)  0.902131214804  0.458722888614  0.817453263618
O(5)  0.769046994320  0.677894969619  0.319833889383
H(5)  0.196450991821  0.671527696766  0.842973296401
H(5)  0.016252788677  0.642803375309  0.442873024622
O(5)  0.898087755127  0.321472930854  0.474184812264
H(5)  0.514767104035  0.140439521371  0.712892302699
H(5)  0.830476345121  0.057909276896  0.291388820537
O(5)  0.038044681535  0.956544104688  0.667168820704
H(5)  0.964200419455  0.531494278331  0.802068523896
H(5)  0.374413983880  0.353819032573  0.378267817105
*
